20
587 233 220
68 66 31
120 34 26
95 76 60
61 47 34
53 45 36
80 52 42
109 63 28
74 64 35
53 40 36
102 96 59
64 60 47
99 90 32
76 50 43
90 75 25
94 65 37
117 34 28
39 28 24
92 60 42
102 78 49
82 69 46
thpack7_10